Route #1: 20 16 34 28 22 42 21 35 2 41 25 12 9 36
Route #2: 39 40 11 17 8 13 19 43 37 6 45 26 23 4 33
Route #3: 1 18 29 32 30
Route #4: 44 46 7 5
Route #5: 27 38 3 14 31 15
Route #6: 10
Route #7: 24
cost 1291.1428032697293
